
Log started (V12.10.0.0) Fri Apr  9 00:32:28 2021


Problem 'asset.lp' read.
Read time = 0.00 sec. (0.06 ticks)
New value for default parallel thread count: 1
New value for time limit in seconds: 200
Version identifier: 12.10.0.0 | 2019-11-26 | 843d4de
CPXPARAM_Threads                                 1
CPXPARAM_TimeLimit                               200
Found incumbent of value -0.908840 after 0.00 sec. (0.03 ticks)
Tried aggregator 4 times.
MIP Presolve eliminated 310 rows and 259 columns.
MIP Presolve modified 543 coefficients.
Aggregator did 115 substitutions.
Reduced MIP has 208 rows, 210 columns, and 763 nonzeros.
Reduced MIP has 161 binaries, 32 generals, 0 SOSs, and 0 indicators.
Presolve time = 0.00 sec. (1.99 ticks)
Probing fixed 37 vars, tightened 11 bounds.
Probing time = 0.00 sec. (0.29 ticks)
Cover probing fixed 0 vars, tightened 16 bounds.
Tried aggregator 2 times.
MIP Presolve eliminated 78 rows and 70 columns.
MIP Presolve modified 3 coefficients.
Aggregator did 1 substitutions.
Reduced MIP has 129 rows, 133 columns, and 389 nonzeros.
Reduced MIP has 101 binaries, 15 generals, 0 SOSs, and 0 indicators.
Presolve time = 0.00 sec. (0.70 ticks)
Probing time = 0.00 sec. (0.11 ticks)
Tried aggregator 1 time.
Detecting symmetries...
MIP Presolve modified 2 coefficients.
Reduced MIP has 129 rows, 133 columns, and 389 nonzeros.
Reduced MIP has 101 binaries, 15 generals, 0 SOSs, and 0 indicators.
Presolve time = 0.00 sec. (0.27 ticks)
Probing time = 0.00 sec. (0.11 ticks)
Clique table members: 83.
MIP emphasis: balance optimality and feasibility.
MIP search method: dynamic search.
Parallel mode: none, using 1 thread.
Root relaxation solution time = 0.00 sec. (0.55 ticks)

        Nodes                                         Cuts/
   Node  Left     Objective  IInf  Best Integer    Best Bound    ItCnt     Gap

*     0+    0                           -0.9088      175.5079              --- 
      0     0      131.8554    33       -0.9088      131.8554       77     --- 
      0     0      130.2105    33       -0.9088      Cuts: 38      126     --- 
      0     0      129.3493    33       -0.9088      Cuts: 24      179     --- 
*     0+    0                          115.8141      129.3493            11.69%
      0     0      126.8469    33      115.8141       Cuts: 9      192    9.53%
*     0+    0                          124.8325      126.8469             1.61%
Detecting symmetries...

Repeating presolve.
Tried aggregator 5 times.
MIP Presolve eliminated 51 rows and 55 columns.
MIP Presolve modified 11 coefficients.
Aggregator did 8 substitutions.
Reduced MIP has 70 rows, 70 columns, and 206 nonzeros.
Reduced MIP has 55 binaries, 6 generals, 0 SOSs, and 0 indicators.
Presolve time = 0.00 sec. (0.44 ticks)
Probing fixed 1 vars, tightened 1 bounds.
Probing time = 0.00 sec. (0.05 ticks)
Cover probing fixed 0 vars, tightened 8 bounds.
Tried aggregator 1 time.
MIP Presolve eliminated 10 rows and 2 columns.
MIP Presolve modified 26 coefficients.
Reduced MIP has 60 rows, 68 columns, and 184 nonzeros.
Reduced MIP has 54 binaries, 5 generals, 0 SOSs, and 0 indicators.
Presolve time = 0.00 sec. (0.11 ticks)
Probing time = 0.00 sec. (0.05 ticks)
Tried aggregator 1 time.
Detecting symmetries...
Reduced MIP has 60 rows, 68 columns, and 184 nonzeros.
Reduced MIP has 54 binaries, 5 generals, 0 SOSs, and 0 indicators.
Presolve time = 0.00 sec. (0.13 ticks)
Represolve time = 0.00 sec. (1.16 ticks)
Probing time = 0.00 sec. (0.05 ticks)
Clique table members: 22.
MIP emphasis: balance optimality and feasibility.
MIP search method: dynamic search.
Parallel mode: none, using 1 thread.
Root relaxation solution time = 0.00 sec. (0.29 ticks)

        Nodes                                         Cuts/
   Node  Left     Objective  IInf  Best Integer    Best Bound    ItCnt     Gap

*     0+    0                          124.8325      126.8469             1.61%
      0     0      124.8341    10      124.8325      124.8341      233    0.00%

Cover cuts applied:  1
Implied bound cuts applied:  5
Zero-half cuts applied:  2
Gomory fractional cuts applied:  4

Root node processing (before b&c):
  Real time             =    0.02 sec. (11.05 ticks)
Sequential b&c:
  Real time             =    0.00 sec. (0.00 ticks)
                          ------------
Total (root+branch&cut) =    0.02 sec. (11.05 ticks)

Solution pool: 3 solutions saved.

MIP - Integer optimal, tolerance (0.0001/1e-06):  Objective =  1.2483251130e+02
Current MIP best bound =  1.2483406489e+02 (gap = 0.00155358, 0.00%)
Solution time =    0.02 sec.  Iterations = 233  Nodes = 0 (1)
Deterministic time = 11.05 ticks  (579.45 ticks/sec)


Incumbent solution
Variable Name           Solution Value
F                           140.000000
f1                            0.937489
f2                           14.230000
y43                           1.000000
y86                           1.000000
y81                           1.000000
y90                           1.000000
y96                           1.000000
y12                           1.000000
y2                            1.000000
y115                          1.000000
y19                           1.000000
s37                           6.000000
s38                           6.000000
s39                           6.000000
s41                           6.000000
s43                           6.384971
s47                           6.000000
s58                           6.000000
s62                           6.000000
s64                           6.000000
s67                           6.000000
s84                           6.000000
s86                           6.416164
s93                           6.000000
s122                          6.000000
s131                          6.000000
s141                          6.000000
s150                          6.000000
s170                          6.000000
s42                           6.020000
s32                           6.200000
s81                           6.834548
s140                          6.220000
s90                           7.101630
s78                           6.240000
s165                          6.410000
s96                           7.137575
s12                           7.381012
s68                           6.460000
s147                          6.480000
s2                            7.502863
s115                          7.132012
s77                           6.600000
s19                           7.631365
x85x115x1                     1.000000
x142x115x1                    1.000000
x8x86x1                       1.000000
x124x19x1                     1.000000
x22x43x1                      2.000000
x76x81x2                      1.000000
x8x86x2                       1.000000
x124x2x2                      1.000000
x5x2x3                        1.000000
x85x81x3                      1.000000
x142x96x3                     1.000000
x76x96x3                      1.000000
x16x12x3                      2.000000
x125x90x3                     2.000000
x43x0x1                       2.000000
x86x19x1                      1.000000
x86x0x2                       1.000000
x81x0x2                       1.000000
x81x0x3                       1.000000
x90x0x3                       2.000000
x96x0x3                       2.000000
x12x0x3                       2.000000
x2x0x2                        1.000000
x2x0x3                        1.000000
x115x0x1                      2.000000
x19x0x1                       2.000000
s5                            5.277917
z5z2z3                        1.000000
s85                           5.163874
z85z81z3                      1.000000
z85z115z1                     1.000000
s142                          5.768645
z142z96z3                     1.000000
z142z115z1                    1.000000
s76                           5.273219
z76z81z2                      1.000000
z76z96z3                      1.000000
s8                            5.106380
z8z86z1                       1.000000
z8z86z2                       1.000000
z8z19z1                       1.000000
s16                           5.990770
z16z12z3                      1.000000
s125                          5.760000
z125z90z3                     1.000000
s124                          5.870000
z124z2z2                      1.000000
z124z19z1                     1.000000
s22                           4.741480
z22z43z1                      1.000000
z22z115z1                     1.000000
z22z19z1                      1.000000
z86z19z1                      1.000000
All other variables in the range 1-588 are 0.
